c Generated map
c Size: 9 * 9, weights in range: 1 to 10, walls: True, with ratio 0.05
c dim 8 of 8
c
p sp 81 130
c graph contains 81 nodes and 130 arcs
c
a 1 10 3
a 10 1 3
a 1 2 4
a 2 1 4
a 2 11 1
a 11 2 1
a 4 13 2
a 13 4 2
a 4 5 8
a 5 4 8
a 5 6 3
a 6 5 3
a 6 15 4
a 15 6 4
a 6 7 10
a 7 6 10
a 7 16 9
a 16 7 9
a 7 8 10
a 8 7 10
a 8 17 7
a 17 8 7
a 8 9 4
a 9 8 4
a 9 18 2
a 18 9 2
a 10 19 2
a 19 10 2
a 10 11 6
a 11 10 6
a 11 20 1
a 20 11 1
a 11 12 8
a 12 11 8
a 12 21 8
a 21 12 8
a 12 13 8
a 13 12 8
a 13 22 4
a 22 13 4
a 15 24 5
a 24 15 5
a 15 16 8
a 16 15 8
a 16 25 2
a 25 16 2
a 16 17 1
a 17 16 1
a 17 26 6
a 26 17 6
a 17 18 5
a 18 17 5
a 18 27 3
a 27 18 3
a 19 28 4
a 28 19 4
a 19 20 8
a 20 19 8
a 20 29 9
a 29 20 9
a 20 21 5
a 21 20 5
a 21 30 7
a 30 21 7
a 21 22 9
a 22 21 9
a 22 31 5
a 31 22 5
a 22 23 5
a 23 22 5
a 23 32 1
a 32 23 1
a 23 24 3
a 24 23 3
a 24 33 9
a 33 24 9
a 24 25 8
a 25 24 8
a 25 34 6
a 34 25 6
a 25 26 10
a 26 25 10
a 26 35 10
a 35 26 10
a 26 27 1
a 27 26 1
a 27 36 3
a 36 27 3
a 28 37 9
a 37 28 9
a 28 29 1
a 29 28 1
a 29 38 5
a 38 29 5
a 29 30 1
a 30 29 1
a 30 39 6
a 39 30 6
a 30 31 10
a 31 30 10
a 31 40 9
a 40 31 9
a 31 32 7
a 32 31 7
a 32 41 9
a 41 32 9
a 32 33 3
a 33 32 3
a 33 42 3
a 42 33 3
a 33 34 6
a 34 33 6
a 34 43 9
a 43 34 9
a 34 35 1
a 35 34 1
a 35 44 2
a 44 35 2
a 35 36 8
a 36 35 8
a 36 45 7
a 45 36 7
a 37 46 1
a 46 37 1
a 37 38 5
a 38 37 5
a 38 47 3
a 47 38 3
a 38 39 10
a 39 38 10
a 39 48 9
a 48 39 9
a 39 40 1
a 40 39 1
a 40 49 7
a 49 40 7
a 40 41 4
a 41 40 4
a 41 50 5
a 50 41 5
a 41 42 10
a 42 41 10
a 42 51 6
a 51 42 6
a 42 43 1
a 43 42 1
a 43 52 8
a 52 43 8
a 43 44 3
a 44 43 3
a 44 53 10
a 53 44 10
a 44 45 2
a 45 44 2
a 45 54 6
a 54 45 6
a 46 55 1
a 55 46 1
a 46 47 4
a 47 46 4
a 47 56 2
a 56 47 2
a 47 48 2
a 48 47 2
a 48 57 9
a 57 48 9
a 48 49 3
a 49 48 3
a 49 58 2
a 58 49 2
a 49 50 2
a 50 49 2
a 50 59 6
a 59 50 6
a 50 51 2
a 51 50 2
a 51 60 2
a 60 51 2
a 51 52 2
a 52 51 2
a 52 53 9
a 53 52 9
a 53 62 3
a 62 53 3
a 53 54 2
a 54 53 2
a 54 63 6
a 63 54 6
a 55 64 8
a 64 55 8
a 55 56 4
a 56 55 4
a 56 65 8
a 65 56 8
a 56 57 5
a 57 56 5
a 57 66 10
a 66 57 10
a 57 58 4
a 58 57 4
a 58 67 2
a 67 58 2
a 58 59 5
a 59 58 5
a 59 68 3
a 68 59 3
a 59 60 3
a 60 59 3
a 60 69 5
a 69 60 5
a 62 71 2
a 71 62 2
a 62 63 7
a 63 62 7
a 63 72 7
a 72 63 7
a 64 73 1
a 73 64 1
a 64 65 4
a 65 64 4
a 65 74 8
a 74 65 8
a 65 66 3
a 66 65 3
a 66 75 8
a 75 66 8
a 66 67 10
a 67 66 10
a 67 76 2
a 76 67 2
a 67 68 3
a 68 67 3
a 68 69 9
a 69 68 9
a 69 78 9
a 78 69 9
a 69 70 4
a 70 69 4
a 70 79 4
a 79 70 4
a 70 71 10
a 71 70 10
a 71 80 2
a 80 71 2
a 71 72 8
a 72 71 8
a 72 81 6
a 81 72 6
a 73 74 3
a 74 73 3
a 74 75 2
a 75 74 2
a 75 76 8
a 76 75 8
a 78 79 2
a 79 78 2
a 79 80 10
a 80 79 10
a 80 81 10
a 81 80 10
